nK = 2420;
nT = 6;
nI = 14;
L = 35;
TT = 495;
np = 1;
nc = 3;
b = [39, 47, 25, 58, 62, 25, 50, 30, 67, 63, 49, 49, 41, 58];
d = [60, 138, 108, 140, 101, 126, 120, 136, 138, 120, 137, 143, 84, 123];
m = [2.4, 1.7, 2.5, 2.2, 1.4, 1.3, 1.6, 1.7, 2.2, 1.3, 1.1, 1.3, 1.7, 1];
pt = [0.32, 0.32, 0.2, 0.26, 0.21, 0.2];
st = [16.32, 17.28, 11, 11.7, 12.6, 11.2];
arc = {<1, 0, 1, 1, 0, 0, 0, [1, 1, 1, 1, 1, 1]>, <2, 1, 2, 1, 0, 0, 0, [1, 1, 1, 1, 1, 1]>, <3, 2, 3, 1, 0, 0, 0, [1, 1, 1, 1, 1, 1]>, <4, 3, 4, 1, 0, 0, 0, [1, 1, 1, 1, 1, 1]>, <5, 4, 5, 1, 0, 0, 0, [1, 1, 1, 1, 1, 1]>, <6, 5, 6, 1, 0, 0, 0, [1, 1, 1, 1, 1, 1]>, <7, 6, 7, 1, 0, 0, 0, [1, 1, 1, 1, 1, 1]>, <8, 7, 8, 1, 0, 0, 0, [1, 1, 1, 1, 1, 1]>, <9, 8, 9, 1, 0, 0, 0, [1, 1, 1, 1, 1, 1]>, <10, 9, 10, 1, 0, 0, 0, [1, 1, 1, 1, 1, 1]>, <11, 10, 11, 1, 0, 0, 0, [1, 1, 1, 1, 1, 1]>, <12, 11, 12, 1, 0, 0, 0, [1, 1, 1, 1, 1, 1]>, <13, 12, 13, 1, 0, 0, 0, [1, 1, 1, 1, 1, 1]>, <14, 13, 14, 1, 0, 0, 0, [1, 1, 1, 1, 1, 1]>, <15, 14, 15, 1, 0, 0, 0, [1, 1, 1, 1, 1, 1]>, <16, 15, 16, 1, 0, 0, 0, [1, 1, 1, 1, 1, 1]>, <17, 16, 17, 1, 0, 0, 0, [1, 1, 1, 1, 1, 1]>, <18, 17, 18, 1, 0, 0, 0, [1, 1, 1, 1, 1, 1]>, <19, 18, 19, 1, 0, 0, 0, [1, 1, 1, 1, 1, 1]>, <20, 19, 20, 1, 0, 0, 0, [1, 1, 1, 1, 1, 1]>, <21, 20, 21, 1, 0, 0, 0, [1, 1, 1, 1, 1, 1]>, <22, 21, 22, 1, 0, 0, 0, [1, 1, 1, 1, 1, 1]>, <23, 22, 23, 1, 0, 0, 0, [1, 1, 1, 1, 1, 1]>, <24, 23, 24, 1, 0, 0, 0, [1, 1, 1, 1, 1, 1]>, <25, 24, 25, 1, 0, 0, 0, [1, 1, 1, 1, 1, 1]>, <26, 25, 26, 1, 0, 0, 0, [1, 1, 1, 1, 1, 1]>, <27, 26, 27, 1, 0, 0, 0, [1, 1, 1, 1, 1, 1]>, <28, 27, 28, 1, 0, 0, 0, [1, 1, 1, 1, 1, 1]>, <29, 28, 29, 1, 0, 0, 0, [1, 1, 1, 1, 1, 1]>, <30, 29, 30, 1, 0, 0, 0, [1, 1, 1, 1, 1, 1]>, <31, 30, 31, 1, 0, 0, 0, [1, 1, 1, 1, 1, 1]>, <32, 31, 32, 1, 0, 0, 0, [1, 1, 1, 1, 1, 1]>, <33, 32, 33, 1, 0, 0, 0, [1, 1, 1, 1, 1, 1]>, <34, 33, 34, 1, 0, 0, 0, [1, 1, 1, 1, 1, 1]>, <35, 34, 35, 1, 0, 0, 0, [1, 1, 1, 1, 1, 1]>, <36, 0, 18, 18, 1, 0, 0, [0, 1, 1, 0, 0, 0]>, <37, 1, 19, 18, 1, 0, 0, [0, 1, 1, 0, 0, 0]>, <38, 2, 20, 18, 1, 0, 0, [0, 1, 1, 0, 0, 0]>, <39, 3, 21, 18, 1, 0, 0, [0, 1, 1, 0, 0, 0]>, <40, 4, 22, 18, 1, 0, 0, [0, 1, 1, 0, 0, 0]>, <41, 5, 23, 18, 1, 0, 0, [0, 1, 1, 0, 0, 0]>, <42, 6, 24, 18, 1, 0, 0, [0, 1, 1, 0, 0, 0]>, <43, 8, 26, 18, 1, 0, 0, [0, 1, 1, 0, 0, 0]>, <44, 9, 27, 18, 1, 0, 0, [0, 1, 1, 0, 0, 0]>, <45, 10, 28, 18, 1, 0, 0, [0, 1, 1, 0, 0, 0]>, <46, 11, 29, 18, 1, 0, 0, [0, 1, 1, 0, 0, 0]>, <47, 12, 30, 18, 1, 0, 0, [0, 1, 1, 0, 0, 0]>, <48, 13, 31, 18, 1, 0, 0, [0, 1, 1, 0, 0, 0]>, <49, 14, 32, 18, 1, 0, 0, [0, 1, 1, 0, 0, 0]>, <50, 15, 33, 18, 1, 0, 0, [0, 1, 1, 0, 0, 0]>, <51, 16, 34, 18, 1, 0, 0, [0, 1, 1, 0, 0, 0]>, <52, 17, 35, 18, 1, 0, 0, [0, 1, 1, 0, 0, 0]>, <53, 1, 17, 16, 2, 0, 0, [1, 1, 0, 0, 0, 0]>, <54, 2, 18, 16, 2, 0, 0, [1, 1, 0, 0, 0, 0]>, <55, 3, 19, 16, 2, 0, 0, [1, 1, 0, 0, 0, 0]>, <56, 4, 20, 16, 2, 0, 0, [1, 1, 0, 0, 0, 0]>, <57, 5, 21, 16, 2, 0, 0, [1, 1, 0, 0, 0, 0]>, <58, 6, 22, 16, 2, 0, 0, [1, 1, 0, 0, 0, 0]>, <59, 10, 26, 16, 2, 0, 0, [1, 1, 0, 0, 0, 0]>, <60, 11, 27, 16, 2, 0, 0, [1, 1, 0, 0, 0, 0]>, <61, 12, 28, 16, 2, 0, 0, [1, 1, 0, 0, 0, 0]>, <62, 13, 29, 16, 2, 0, 0, [1, 1, 0, 0, 0, 0]>, <63, 14, 30, 16, 2, 0, 0, [1, 1, 0, 0, 0, 0]>, <64, 15, 31, 16, 2, 0, 0, [1, 1, 0, 0, 0, 0]>, <65, 16, 32, 16, 2, 0, 0, [1, 1, 0, 0, 0, 0]>, <66, 17, 33, 16, 2, 0, 0, [1, 1, 0, 0, 0, 0]>, <67, 18, 34, 16, 2, 0, 0, [1, 1, 0, 0, 0, 0]>, <68, 19, 35, 16, 2, 0, 0, [1, 1, 0, 0, 0, 0]>, <69, 0, 17, 17, 3, 0, 1, [0, 1, 1, 0, 0, 0]>, <70, 1, 18, 17, 3, 0, 1, [0, 1, 1, 0, 0, 0]>, <71, 2, 19, 17, 3, 0, 1, [0, 1, 1, 0, 0, 0]>, <72, 3, 20, 17, 3, 0, 1, [0, 1, 1, 0, 0, 0]>, <73, 4, 21, 17, 3, 0, 1, [0, 1, 1, 0, 0, 0]>, <74, 5, 22, 17, 3, 0, 1, [0, 1, 1, 0, 0, 0]>, <75, 6, 23, 17, 3, 0, 1, [0, 1, 1, 0, 0, 0]>, <76, 9, 26, 17, 3, 0, 1, [0, 1, 1, 0, 0, 0]>, <77, 10, 27, 17, 3, 0, 1, [0, 1, 1, 0, 0, 0]>, <78, 11, 28, 17, 3, 0, 1, [0, 1, 1, 0, 0, 0]>, <79, 12, 29, 17, 3, 0, 1, [0, 1, 1, 0, 0, 0]>, <80, 13, 30, 17, 3, 0, 1, [0, 1, 1, 0, 0, 0]>, <81, 14, 31, 17, 3, 0, 1, [0, 1, 1, 0, 0, 0]>, <82, 15, 32, 17, 3, 0, 1, [0, 1, 1, 0, 0, 0]>, <83, 16, 33, 17, 3, 0, 1, [0, 1, 1, 0, 0, 0]>, <84, 17, 34, 17, 3, 0, 1, [0, 1, 1, 0, 0, 0]>, <85, 18, 35, 17, 3, 0, 1, [0, 1, 1, 0, 0, 0]>, <86, 0, 22, 22, 4, 1, 0, [0, 0, 1, 1, 0, 0]>, <87, 1, 23, 22, 4, 1, 0, [0, 0, 1, 1, 0, 0]>, <88, 2, 24, 22, 4, 1, 0, [0, 0, 1, 1, 0, 0]>, <89, 3, 25, 22, 4, 1, 0, [0, 0, 1, 1, 0, 0]>, <90, 4, 26, 22, 4, 1, 0, [0, 0, 1, 1, 0, 0]>, <91, 5, 27, 22, 4, 1, 0, [0, 0, 1, 1, 0, 0]>, <92, 6, 28, 22, 4, 1, 0, [0, 0, 1, 1, 0, 0]>, <93, 7, 29, 22, 4, 1, 0, [0, 0, 1, 1, 0, 0]>, <94, 8, 30, 22, 4, 1, 0, [0, 0, 1, 1, 0, 0]>, <95, 9, 31, 22, 4, 1, 0, [0, 0, 1, 1, 0, 0]>, <96, 10, 32, 22, 4, 1, 0, [0, 0, 1, 1, 0, 0]>, <97, 11, 33, 22, 4, 1, 0, [0, 0, 1, 1, 0, 0]>, <98, 12, 34, 22, 4, 1, 0, [0, 0, 1, 1, 0, 0]>, <99, 13, 35, 22, 4, 1, 0, [0, 0, 1, 1, 0, 0]>, <100, 0, 22, 22, 5, 0, 1, [1, 1, 0, 0, 0, 0]>, <101, 1, 23, 22, 5, 0, 1, [1, 1, 0, 0, 0, 0]>, <102, 2, 24, 22, 5, 0, 1, [1, 1, 0, 0, 0, 0]>, <103, 3, 25, 22, 5, 0, 1, [1, 1, 0, 0, 0, 0]>, <104, 4, 26, 22, 5, 0, 1, [1, 1, 0, 0, 0, 0]>, <105, 5, 27, 22, 5, 0, 1, [1, 1, 0, 0, 0, 0]>, <106, 6, 28, 22, 5, 0, 1, [1, 1, 0, 0, 0, 0]>, <107, 7, 29, 22, 5, 0, 1, [1, 1, 0, 0, 0, 0]>, <108, 8, 30, 22, 5, 0, 1, [1, 1, 0, 0, 0, 0]>, <109, 9, 31, 22, 5, 0, 1, [1, 1, 0, 0, 0, 0]>, <110, 10, 32, 22, 5, 0, 1, [1, 1, 0, 0, 0, 0]>, <111, 11, 33, 22, 5, 0, 1, [1, 1, 0, 0, 0, 0]>, <112, 12, 34, 22, 5, 0, 1, [1, 1, 0, 0, 0, 0]>, <113, 13, 35, 22, 5, 0, 1, [1, 1, 0, 0, 0, 0]>, <114, 0, 22, 22, 6, 0, 1, [0, 0, 0, 1, 1, 0]>, <115, 1, 23, 22, 6, 0, 1, [0, 0, 0, 1, 1, 0]>, <116, 2, 24, 22, 6, 0, 1, [0, 0, 0, 1, 1, 0]>, <117, 3, 25, 22, 6, 0, 1, [0, 0, 0, 1, 1, 0]>, <118, 4, 26, 22, 6, 0, 1, [0, 0, 0, 1, 1, 0]>, <119, 5, 27, 22, 6, 0, 1, [0, 0, 0, 1, 1, 0]>, <120, 6, 28, 22, 6, 0, 1, [0, 0, 0, 1, 1, 0]>, <121, 7, 29, 22, 6, 0, 1, [0, 0, 0, 1, 1, 0]>, <122, 8, 30, 22, 6, 0, 1, [0, 0, 0, 1, 1, 0]>, <123, 9, 31, 22, 6, 0, 1, [0, 0, 0, 1, 1, 0]>, <124, 10, 32, 22, 6, 0, 1, [0, 0, 0, 1, 1, 0]>, <125, 11, 33, 22, 6, 0, 1, [0, 0, 0, 1, 1, 0]>, <126, 12, 34, 22, 6, 0, 1, [0, 0, 0, 1, 1, 0]>, <127, 13, 35, 22, 6, 0, 1, [0, 0, 0, 1, 1, 0]>, <128, 0, 18, 18, 7, 0, 1, [1, 1, 0, 0, 0, 0]>, <129, 1, 19, 18, 7, 0, 1, [1, 1, 0, 0, 0, 0]>, <130, 2, 20, 18, 7, 0, 1, [1, 1, 0, 0, 0, 0]>, <131, 3, 21, 18, 7, 0, 1, [1, 1, 0, 0, 0, 0]>, <132, 4, 22, 18, 7, 0, 1, [1, 1, 0, 0, 0, 0]>, <133, 5, 23, 18, 7, 0, 1, [1, 1, 0, 0, 0, 0]>, <134, 6, 24, 18, 7, 0, 1, [1, 1, 0, 0, 0, 0]>, <135, 8, 26, 18, 7, 0, 1, [1, 1, 0, 0, 0, 0]>, <136, 9, 27, 18, 7, 0, 1, [1, 1, 0, 0, 0, 0]>, <137, 10, 28, 18, 7, 0, 1, [1, 1, 0, 0, 0, 0]>, <138, 11, 29, 18, 7, 0, 1, [1, 1, 0, 0, 0, 0]>, <139, 12, 30, 18, 7, 0, 1, [1, 1, 0, 0, 0, 0]>, <140, 13, 31, 18, 7, 0, 1, [1, 1, 0, 0, 0, 0]>, <141, 14, 32, 18, 7, 0, 1, [1, 1, 0, 0, 0, 0]>, <142, 15, 33, 18, 7, 0, 1, [1, 1, 0, 0, 0, 0]>, <143, 16, 34, 18, 7, 0, 1, [1, 1, 0, 0, 0, 0]>, <144, 17, 35, 18, 7, 0, 1, [1, 1, 0, 0, 0, 0]>, <145, 1, 17, 16, 8, 1, 0, [0, 0, 1, 1, 0, 0]>, <146, 2, 18, 16, 8, 1, 0, [0, 0, 1, 1, 0, 0]>, <147, 3, 19, 16, 8, 1, 0, [0, 0, 1, 1, 0, 0]>, <148, 4, 20, 16, 8, 1, 0, [0, 0, 1, 1, 0, 0]>, <149, 5, 21, 16, 8, 1, 0, [0, 0, 1, 1, 0, 0]>, <150, 6, 22, 16, 8, 1, 0, [0, 0, 1, 1, 0, 0]>, <151, 10, 26, 16, 8, 1, 0, [0, 0, 1, 1, 0, 0]>, <152, 11, 27, 16, 8, 1, 0, [0, 0, 1, 1, 0, 0]>, <153, 12, 28, 16, 8, 1, 0, [0, 0, 1, 1, 0, 0]>, <154, 13, 29, 16, 8, 1, 0, [0, 0, 1, 1, 0, 0]>, <155, 14, 30, 16, 8, 1, 0, [0, 0, 1, 1, 0, 0]>, <156, 15, 31, 16, 8, 1, 0, [0, 0, 1, 1, 0, 0]>, <157, 16, 32, 16, 8, 1, 0, [0, 0, 1, 1, 0, 0]>, <158, 17, 33, 16, 8, 1, 0, [0, 0, 1, 1, 0, 0]>, <159, 18, 34, 16, 8, 1, 0, [0, 0, 1, 1, 0, 0]>, <160, 19, 35, 16, 8, 1, 0, [0, 0, 1, 1, 0, 0]>, <161, 0, 21, 21, 9, 1, 0, [0, 0, 0, 1, 1, 0]>, <162, 1, 22, 21, 9, 1, 0, [0, 0, 0, 1, 1, 0]>, <163, 2, 23, 21, 9, 1, 0, [0, 0, 0, 1, 1, 0]>, <164, 3, 24, 21, 9, 1, 0, [0, 0, 0, 1, 1, 0]>, <165, 4, 25, 21, 9, 1, 0, [0, 0, 0, 1, 1, 0]>, <166, 5, 26, 21, 9, 1, 0, [0, 0, 0, 1, 1, 0]>, <167, 6, 27, 21, 9, 1, 0, [0, 0, 0, 1, 1, 0]>, <168, 7, 28, 21, 9, 1, 0, [0, 0, 0, 1, 1, 0]>, <169, 8, 29, 21, 9, 1, 0, [0, 0, 0, 1, 1, 0]>, <170, 9, 30, 21, 9, 1, 0, [0, 0, 0, 1, 1, 0]>, <171, 10, 31, 21, 9, 1, 0, [0, 0, 0, 1, 1, 0]>, <172, 11, 32, 21, 9, 1, 0, [0, 0, 0, 1, 1, 0]>, <173, 12, 33, 21, 9, 1, 0, [0, 0, 0, 1, 1, 0]>, <174, 13, 34, 21, 9, 1, 0, [0, 0, 0, 1, 1, 0]>, <175, 14, 35, 21, 9, 1, 0, [0, 0, 0, 1, 1, 0]>, <176, 0, 22, 22, 10, 0, 1, [1, 1, 0, 0, 0, 0]>, <177, 1, 23, 22, 10, 0, 1, [1, 1, 0, 0, 0, 0]>, <178, 2, 24, 22, 10, 0, 1, [1, 1, 0, 0, 0, 0]>, <179, 3, 25, 22, 10, 0, 1, [1, 1, 0, 0, 0, 0]>, <180, 4, 26, 22, 10, 0, 1, [1, 1, 0, 0, 0, 0]>, <181, 5, 27, 22, 10, 0, 1, [1, 1, 0, 0, 0, 0]>, <182, 6, 28, 22, 10, 0, 1, [1, 1, 0, 0, 0, 0]>, <183, 7, 29, 22, 10, 0, 1, [1, 1, 0, 0, 0, 0]>, <184, 8, 30, 22, 10, 0, 1, [1, 1, 0, 0, 0, 0]>, <185, 9, 31, 22, 10, 0, 1, [1, 1, 0, 0, 0, 0]>, <186, 10, 32, 22, 10, 0, 1, [1, 1, 0, 0, 0, 0]>, <187, 11, 33, 22, 10, 0, 1, [1, 1, 0, 0, 0, 0]>, <188, 12, 34, 22, 10, 0, 1, [1, 1, 0, 0, 0, 0]>, <189, 13, 35, 22, 10, 0, 1, [1, 1, 0, 0, 0, 0]>, <190, 0, 20, 20, 11, 0, 1, [0, 0, 0, 0, 1, 1]>, <191, 1, 21, 20, 11, 0, 1, [0, 0, 0, 0, 1, 1]>, <192, 2, 22, 20, 11, 0, 1, [0, 0, 0, 0, 1, 1]>, <193, 3, 23, 20, 11, 0, 1, [0, 0, 0, 0, 1, 1]>, <194, 4, 24, 20, 11, 0, 1, [0, 0, 0, 0, 1, 1]>, <195, 5, 25, 20, 11, 0, 1, [0, 0, 0, 0, 1, 1]>, <196, 6, 26, 20, 11, 0, 1, [0, 0, 0, 0, 1, 1]>, <197, 7, 27, 20, 11, 0, 1, [0, 0, 0, 0, 1, 1]>, <198, 8, 28, 20, 11, 0, 1, [0, 0, 0, 0, 1, 1]>, <199, 9, 29, 20, 11, 0, 1, [0, 0, 0, 0, 1, 1]>, <200, 10, 30, 20, 11, 0, 1, [0, 0, 0, 0, 1, 1]>, <201, 11, 31, 20, 11, 0, 1, [0, 0, 0, 0, 1, 1]>, <202, 12, 32, 20, 11, 0, 1, [0, 0, 0, 0, 1, 1]>, <203, 13, 33, 20, 11, 0, 1, [0, 0, 0, 0, 1, 1]>, <204, 14, 34, 20, 11, 0, 1, [0, 0, 0, 0, 1, 1]>, <205, 15, 35, 20, 11, 0, 1, [0, 0, 0, 0, 1, 1]>, <206, 0, 21, 21, 12, 0, 0, [1, 1, 0, 0, 0, 0]>, <207, 1, 22, 21, 12, 0, 0, [1, 1, 0, 0, 0, 0]>, <208, 2, 23, 21, 12, 0, 0, [1, 1, 0, 0, 0, 0]>, <209, 3, 24, 21, 12, 0, 0, [1, 1, 0, 0, 0, 0]>, <210, 4, 25, 21, 12, 0, 0, [1, 1, 0, 0, 0, 0]>, <211, 5, 26, 21, 12, 0, 0, [1, 1, 0, 0, 0, 0]>, <212, 6, 27, 21, 12, 0, 0, [1, 1, 0, 0, 0, 0]>, <213, 7, 28, 21, 12, 0, 0, [1, 1, 0, 0, 0, 0]>, <214, 8, 29, 21, 12, 0, 0, [1, 1, 0, 0, 0, 0]>, <215, 9, 30, 21, 12, 0, 0, [1, 1, 0, 0, 0, 0]>, <216, 10, 31, 21, 12, 0, 0, [1, 1, 0, 0, 0, 0]>, <217, 11, 32, 21, 12, 0, 0, [1, 1, 0, 0, 0, 0]>, <218, 12, 33, 21, 12, 0, 0, [1, 1, 0, 0, 0, 0]>, <219, 13, 34, 21, 12, 0, 0, [1, 1, 0, 0, 0, 0]>, <220, 14, 35, 21, 12, 0, 0, [1, 1, 0, 0, 0, 0]>, <221, 0, 18, 18, 13, 0, 0, [1, 0, 0, 0, 0, 1]>, <222, 1, 19, 18, 13, 0, 0, [1, 0, 0, 0, 0, 1]>, <223, 2, 20, 18, 13, 0, 0, [1, 0, 0, 0, 0, 1]>, <224, 3, 21, 18, 13, 0, 0, [1, 0, 0, 0, 0, 1]>, <225, 4, 22, 18, 13, 0, 0, [1, 0, 0, 0, 0, 1]>, <226, 5, 23, 18, 13, 0, 0, [1, 0, 0, 0, 0, 1]>, <227, 6, 24, 18, 13, 0, 0, [1, 0, 0, 0, 0, 1]>, <228, 8, 26, 18, 13, 0, 0, [1, 0, 0, 0, 0, 1]>, <229, 9, 27, 18, 13, 0, 0, [1, 0, 0, 0, 0, 1]>, <230, 10, 28, 18, 13, 0, 0, [1, 0, 0, 0, 0, 1]>, <231, 11, 29, 18, 13, 0, 0, [1, 0, 0, 0, 0, 1]>, <232, 12, 30, 18, 13, 0, 0, [1, 0, 0, 0, 0, 1]>, <233, 13, 31, 18, 13, 0, 0, [1, 0, 0, 0, 0, 1]>, <234, 14, 32, 18, 13, 0, 0, [1, 0, 0, 0, 0, 1]>, <235, 15, 33, 18, 13, 0, 0, [1, 0, 0, 0, 0, 1]>, <236, 16, 34, 18, 13, 0, 0, [1, 0, 0, 0, 0, 1]>, <237, 17, 35, 18, 13, 0, 0, [1, 0, 0, 0, 0, 1]>, <238, 0, 22, 22, 14, 0, 0, [0, 1, 1, 0, 0, 0]>, <239, 1, 23, 22, 14, 0, 0, [0, 1, 1, 0, 0, 0]>, <240, 2, 24, 22, 14, 0, 0, [0, 1, 1, 0, 0, 0]>, <241, 3, 25, 22, 14, 0, 0, [0, 1, 1, 0, 0, 0]>, <242, 4, 26, 22, 14, 0, 0, [0, 1, 1, 0, 0, 0]>, <243, 5, 27, 22, 14, 0, 0, [0, 1, 1, 0, 0, 0]>, <244, 6, 28, 22, 14, 0, 0, [0, 1, 1, 0, 0, 0]>, <245, 7, 29, 22, 14, 0, 0, [0, 1, 1, 0, 0, 0]>, <246, 8, 30, 22, 14, 0, 0, [0, 1, 1, 0, 0, 0]>, <247, 9, 31, 22, 14, 0, 0, [0, 1, 1, 0, 0, 0]>, <248, 10, 32, 22, 14, 0, 0, [0, 1, 1, 0, 0, 0]>, <249, 11, 33, 22, 14, 0, 0, [0, 1, 1, 0, 0, 0]>, <250, 12, 34, 22, 14, 0, 0, [0, 1, 1, 0, 0, 0]>, <251, 13, 35, 22, 14, 0, 0, [0, 1, 1, 0, 0, 0]>};
